; benchmark generated from python API
(set-info :status unknown)
(declare-fun S_0 () Real)
(declare-fun A_0 () Real)
(declare-fun L_0 () Real)
(declare-fun L0 () Real)
(declare-fun C () Real)
(declare-fun S_2 () Real)
(declare-fun S_5 () Real)
(declare-fun S_1 () Real)
(declare-fun S_3 () Real)
(declare-fun L_1 () Real)
(declare-fun A_4 () Real)
(declare-fun S_4 () Real)
(declare-fun L_2 () Real)
(declare-fun A_2 () Real)
(declare-fun L_4 () Real)
(declare-fun B () Real)
(declare-fun A_5 () Real)
(declare-fun A_1 () Real)
(declare-fun L_3 () Real)
(declare-fun A_3 () Real)
(assert
 (let (($x42 (>= L0 0.0)))
 (let (($x864 (>= C 5.0)))
 (let (($x3398 (>= S_5 (+ A_4 (* (- 1.0) L_1)))))
 (let ((?x321 (* (- 1.0) L_4)))
 (let ((?x322 (+ A_4 ?x321)))
 (let (($x2536 (<= L_2 L_1)))
 (let (($x2000 (= L_4 L_2)))
 (let (($x69 (= L_2 L_1)))
 (let (($x12182 (or $x69 (<= S_0 (+ (* (- 1.0) B) (* (- 1.0) L_2) A_2 (* (- 2.0) C))))))
 (let ((?x567 (* (- 1.0) L_0)))
 (let ((?x881 (+ A_0 ?x567)))
 (let ((?x1304 (* (- 2.0) C)))
 (let ((?x388 (* (- 1.0) L_2)))
 (let ((?x637 (* (- 1.0) B)))
 (let ((?x9432 (+ ?x637 ?x388 A_2 ?x1304)))
 (let (($x11899 (or $x2000 (not (<= L_2 L_0)) (<= (+ A_1 ?x567 L_4 (* (- 1.0) A_4) (* 3.0 C)) 0.0))))
 (let (($x1459 (= L_2 L_0)))
 (let (($x948 (not (= L_0 L_1))))
 (let (($x9811 (or $x948 $x1459 (<= (+ A_1 ?x567 L_2 (* (- 1.0) A_2) C) 0.0))))
 (let (($x9517 (<= (+ A_2 (* (- 1.0) A_1) (* (- 1.0) C)) 0.0)))
 (let (($x2493 (not $x2536)))
 (let (($x16737 (or $x2000 $x2493 $x9517 (<= (+ A_2 ?x567 L_4 (* (- 1.0) A_4) (* 2.0 C)) 0.0))))
 (let (($x1391 (not (= L_2 L_4))))
 (let (($x59 (= L_1 L_0)))
 (let (($x9909 (or $x59 $x1391 $x2493 (<= (+ A_4 (* (- 1.0) A_1) (* (- 3.0) C)) 0.0))))
 (let (($x9702 (<= A_4 (+ A_1 ?x637 (* 3.0 C)))))
 (let (($x2495 (not (<= L_4 L_2))))
 (let (($x991 (<= L_1 L_0)))
 (let (($x1172 (not (= L_1 L_3))))
 (let (($x79 (= L_3 L_2)))
 (let (($x41 (>= L_0 L0)))
 (let (($x131 (>= S_1 S_0)))
 (let (($x134 (>= S_2 S_1)))
 (let (($x137 (>= S_3 S_2)))
 (let (($x140 (>= S_4 S_3)))
 (let (($x146 (>= A_2 A_1)))
 (let (($x147 (>= A_3 A_2)))
 (let (($x148 (>= A_4 A_3)))
 (let (($x149 (>= A_5 A_4)))
 (and (<= (+ A_3 (* (- 1.0) L_3)) S_5) (<= ?x881 S_4) $x149 $x148 $x147 $x146 $x140 $x137 $x134 $x131 $x41 $x79 (or (= L_4 L_3) (<= S_4 (+ A_4 ?x321 ?x637))) (>= S_1 (+ ?x637 (* (- 1.0) L_1) A_1 (* (- 1.0) C))) (or (= L_4 L_3) (<= S_5 (+ A_4 ?x321 ?x637 C))) (or $x948 (>= S_2 (+ A_1 ?x567 ?x637))) (>= S_5 (+ A_4 ?x321 ?x637)) (or $x948 (>= S_3 (+ A_1 ?x567 ?x637 C))) (not (<= (+ A_1 (* (- 1.0) L_1)) S_4)) (or $x59 (not $x991)) (>= S_2 (+ A_1 (* (- 1.0) L_1) ?x637)) (>= S_3 (+ A_2 ?x388 ?x637)) (>= S_4 (+ ?x637 ?x321 A_4 (* (- 1.0) C))) (>= S_0 (+ ?x637 (* (- 1.0) L_1) A_1 ?x1304)) (or $x59 (<= S_1 (+ A_1 (* (- 1.0) L_1) ?x637))) (or $x69 (<= S_2 (+ A_2 ?x388 ?x637))) (or $x69 $x991 (= (+ A_2 ?x388) (+ A_1 (* (- 1.0) L_1) C))) (>= S_3 (+ A_1 (* (- 1.0) L_1) ?x637 C)) (or $x59 (<= S_0 (+ ?x637 (* (- 1.0) L_1) A_1 (* (- 1.0) C)))) (or $x69 $x2493) (or $x1172 (>= S_4 (+ A_2 (* (- 1.0) L_1) ?x637 C))) (or $x59 (not (= L_1 L_2)) $x9517) (>= S_4 (+ A_1 (* (- 1.0) L_1) ?x637 (* 2.0 C))) (or $x2000 (<= S_1 (+ ?x637 ?x321 A_4 (* (- 3.0) C)))) (or $x991 $x2000 (= ?x322 (+ A_1 (* (- 1.0) L_1) (* 3.0 C)))) (<= (+ ?x637 (* (- 1.0) L_1) A_1 (* (- 1.0) C)) ?x881) (>= S_4 (+ A_2 ?x388 ?x637 C)) (or $x69 (<= S_5 (+ A_2 ?x388 ?x637 (* 3.0 C)))) (or $x69 $x2495 (<= (+ A_4 (* (- 1.0) A_2) ?x1304) 0.0)) (or $x59 (<= S_2 (+ A_1 (* (- 1.0) L_1) ?x637 C))) (or $x59 (<= S_3 (+ A_1 (* (- 1.0) L_1) ?x637 (* 2.0 C)))) (or (>= S_5 (+ A_1 (* (- 1.0) L_1) ?x637 (* 3.0 C))) $x9702) (or $x59 (<= S_5 (+ A_1 (* (- 1.0) L_1) ?x637 (* 4.0 C)))) (or $x59 (<= S_4 (+ A_1 (* (- 1.0) L_1) ?x637 (* 3.0 C)))) (or $x69 (<= S_1 (+ ?x637 ?x388 A_2 (* (- 1.0) C)))) (>= S_2 (+ ?x637 ?x388 A_2 (* (- 1.0) C))) (or $x3398 (not $x9702)) (or $x1391 (>= S_3 (+ ?x637 ?x388 A_4 ?x1304))) $x9909 (or $x2000 (<= S_2 (+ ?x637 ?x321 A_4 ?x1304))) (>= S_2 (+ ?x637 ?x321 A_4 (* (- 3.0) C))) (>= S_3 (+ ?x637 ?x321 A_4 ?x1304)) (>= S_1 (+ ?x637 ?x321 A_4 (* (- 4.0) C))) (<= (+ ?x637 ?x321 A_4 (* (- 4.0) C)) ?x881) (or $x2000 (<= S_0 (+ ?x637 ?x321 A_4 (* (- 4.0) C)))) $x16737 (or (= L_4 L_3) (<= S_3 (+ ?x637 ?x321 A_4 (* (- 1.0) C)))) (or $x69 (<= S_3 (+ A_2 ?x388 ?x637 C))) $x9811 (>= S_0 (+ ?x637 ?x321 A_4 (* (- 5.0) C))) $x11899 (<= ?x9432 ?x881) (>= S_1 ?x9432) $x12182 (<= S_5 (+ A_5 ?x388)) (>= S_0 (+ ?x637 ?x388 A_2 (* (- 3.0) C))) (or $x2495 $x2000) (or $x2000 $x2536 (= ?x322 (+ A_2 ?x388 (* 2.0 C)))) (<= (+ ?x1304 S_1 (* (- 1.0) S_0)) 0.0) (<= (+ C S_1 (* (- 1.0) S_3)) 0.0) (<= (+ (* (- 3.0) C) S_2 (* (- 1.0) S_0)) 0.0) (<= (+ (* 2.0 C) S_1 (* (- 1.0) S_4)) 0.0) (<= (+ ?x1304 S_3 (* (- 1.0) S_2)) 0.0) (<= (+ (* (- 3.0) C) (* (- 1.0) S_1) S_3) 0.0) (<= (+ (* (- 4.0) C) S_3 (* (- 1.0) S_0)) 0.0) (<= (+ (* (- 3.0) C) L_0 (* (- 1.0) A_0) S_3) 0.0) (<= (+ ?x1304 (* (- 1.0) S_1) S_2) 0.0) (<= (+ C S_2 (* (- 1.0) S_4)) 0.0) (<= (+ (* (- 1.0) C) L_0 S_1 (* (- 1.0) A_0)) 0.0) (<= (+ (* (- 5.0) C) L_0 (* (- 1.0) A_0) S_5) 0.0) (<= S_5 (+ A_4 (* (- 1.0) L_1) C)) (<= (+ ?x1304 S_5 (* (- 1.0) S_4)) 0.0) (<= (+ ?x1304 L_0 (* (- 1.0) A_0) S_2) 0.0) (<= (+ (* 3.0 C) S_0 (* (- 1.0) S_4)) 0.0) (<= (+ C (* (- 1.0) S_2) S_0) 0.0) (<= (+ (* 2.0 C) (* (- 1.0) S_3) S_0) 0.0) (<= (+ (* (- 4.0) C) L_0 (* (- 1.0) A_0) S_4) 0.0) (<= (+ (* (- 4.0) C) (* (- 1.0) S_1) S_4) 0.0) (<= (+ (* (- 5.0) C) (* (- 1.0) S_0) S_4) 0.0) (<= (+ ?x1304 (* (- 1.0) S_3) S_4) 0.0) (or $x3398 (<= (+ C (* (- 1.0) S_5) S_3) 0.0)) (or $x3398 (<= (+ (* 3.0 C) S_1 (* (- 1.0) S_5)) 0.0)) (or $x3398 (<= (+ (* 2.0 C) (* (- 1.0) S_5) S_2) 0.0)) (<= (+ (* (- 3.0) C) (* (- 1.0) S_2) S_4) 0.0) (or $x3398 (<= (+ (* 4.0 C) (* (- 1.0) S_5) S_0) 0.0)) (<= (+ (* (- 3.0) C) S_5 (* (- 1.0) S_3)) 0.0) (<= (+ (* (- 6.0) C) S_5 (* (- 1.0) S_0)) 0.0) (<= (+ (* (- 5.0) C) (* (- 1.0) S_1) S_5) 0.0) (<= (+ (* (- 4.0) C) S_5 (* (- 1.0) S_2)) 0.0) $x864 $x42 (<= (+ L_0 (* (- 1.0) A_0) S_0) 0.0))))))))))))))))))))))))))))))))))))))))))
(check-sat)
